
(set-logic BV)

(define-fun shr1 ((x (BitVec 64))) (BitVec 64) (bvlshr x #x0000000000000001))
(define-fun shr4 ((x (BitVec 64))) (BitVec 64) (bvlshr x #x0000000000000004))
(define-fun shr16 ((x (BitVec 64))) (BitVec 64) (bvlshr x #x0000000000000010))
(define-fun shl1 ((x (BitVec 64))) (BitVec 64) (bvshl x #x0000000000000001))
(define-fun if0 ((x (BitVec 64)) (y (BitVec 64)) (z (BitVec 64))) (BitVec 64) (ite (= x #x0000000000000001) y z))
(define-fun func24  ((A (BitVec 64)) (B (BitVec 64)) (C (BitVec 64)) (D (BitVec 64)) ) (BitVec 64) (bvand (bvlshr (bvlshr C  D ) B ) A ))
(define-fun func25  ((A (BitVec 64)) (B (BitVec 64)) (C (BitVec 64)) ) (BitVec 64) (bvand (bvlshr B  C ) A ))
(define-fun func26  ((A (BitVec 64)) (B (BitVec 64)) ) (BitVec 64) (bvand (bvlshr B  #x0000000000000001 ) A ))
(define-fun func27  ((A (BitVec 64)) (B (BitVec 64)) ) (BitVec 64) (bvand (bvlshr B  #x0000000000000010 ) A ))
(define-fun func28  ((A (BitVec 64)) (B (BitVec 64)) ) (BitVec 64) (bvand (bvlshr B  #x0000000000000004 ) A ))
(define-fun func29  ((A (BitVec 64)) (B (BitVec 64)) ) (BitVec 64) (bvand (bvlshr A  B ) #x0000000000000001 ))
(define-fun func30  ((A (BitVec 64)) ) (BitVec 64) (bvand A  #x0000000000000001 ))
(define-fun func31  ((A (BitVec 64)) (B (BitVec 64)) (C (BitVec 64)) (D (BitVec 64)) ) (BitVec 64) (bvlshr (bvlshr (bvlshr C  D ) B ) A ))
(define-fun func32  ((A (BitVec 64)) (B (BitVec 64)) (C (BitVec 64)) ) (BitVec 64) (bvlshr (bvlshr (bvlshr C  #x0000000000000010 ) B ) A ))
(define-fun func33  ((A (BitVec 64)) (B (BitVec 64)) (C (BitVec 64)) ) (BitVec 64) (bvlshr (bvlshr (bvlshr B  C ) A ) #x0000000000000004 ))
(define-fun func34  ((A (BitVec 64)) (B (BitVec 64)) (C (BitVec 64)) ) (BitVec 64) (bvlshr (bvlshr (bvlshr B  C ) #x0000000000000004 ) A ))
(define-fun func35  ((A (BitVec 64)) (B (BitVec 64)) (C (BitVec 64)) ) (BitVec 64) (bvlshr (bvlshr B  C ) A ))
(define-fun func36  ((A (BitVec 64)) (B (BitVec 64)) ) (BitVec 64) (bvlshr (bvlshr B  #x0000000000000010 ) A ))
(define-fun func37  ((A (BitVec 64)) (B (BitVec 64)) ) (BitVec 64) (bvlshr (bvlshr B  #x0000000000000004 ) A ))
(define-fun func38  ((A (BitVec 64)) (B (BitVec 64)) ) (BitVec 64) (bvlshr (bvlshr B  #x0000000000000001 ) A ))
(define-fun func39  ((A (BitVec 64)) (B (BitVec 64)) ) (BitVec 64) (bvlshr (bvlshr A  B ) #x0000000000000001 ))
(define-fun func40  ((A (BitVec 64)) (B (BitVec 64)) ) (BitVec 64) (bvlshr (bvlshr A  B ) #x0000000000000004 ))
(define-fun func41  ((A (BitVec 64)) (B (BitVec 64)) ) (BitVec 64) (bvlshr A  B ))
(define-fun func42  ((A (BitVec 64)) (B (BitVec 64)) (C (BitVec 64)) ) (BitVec 64) (bvlshr (bvshl B  C ) A ))
(define-fun func43  ((A (BitVec 64)) (B (BitVec 64)) ) (BitVec 64) (bvlshr (bvshl B  #x0000000000000001 ) A ))
(define-fun func44  ((A (BitVec 64)) (B (BitVec 64)) ) (BitVec 64) (bvlshr (bvshl A  B ) #x0000000000000004 ))
(define-fun func45  ((A (BitVec 64)) (B (BitVec 64)) (C (BitVec 64)) ) (BitVec 64) (bvlshr (bvadd B  C ) A ))
(define-fun func46  ((A (BitVec 64)) (B (BitVec 64)) ) (BitVec 64) (bvlshr (bvnot B ) A ))
(define-fun func47  ((A (BitVec 64)) ) (BitVec 64) (bvlshr (bvnot A ) #x0000000000000010 ))
(define-fun func48  ((A (BitVec 64)) (B (BitVec 64)) (C (BitVec 64)) ) (BitVec 64) (bvor (bvlshr B  C ) A ))
(define-fun func49  ((A (BitVec 64)) ) (BitVec 64) (bvor A  #x0000000000000001 ))
(define-fun func50  ((A (BitVec 64)) (B (BitVec 64)) (C (BitVec 64)) ) (BitVec 64) (bvshl (bvlshr B  C ) A ))
(define-fun func51  ((A (BitVec 64)) (B (BitVec 64)) ) (BitVec 64) (bvshl (bvlshr B  #x0000000000000001 ) A ))
(define-fun func52  ((A (BitVec 64)) (B (BitVec 64)) ) (BitVec 64) (bvshl (bvlshr A  B ) #x0000000000000001 ))
(define-fun func54  ((A (BitVec 64)) (B (BitVec 64)) (C (BitVec 64)) ) (BitVec 64) (bvadd (bvlshr B  C ) A ))
(define-fun func55  ((A (BitVec 64)) ) (BitVec 64) (bvadd A  #x0000000000000001 ))
(define-fun func56  ((A (BitVec 64)) (B (BitVec 64)) (C (BitVec 64)) ) (BitVec 64) (bvadd (bvshl B  C ) A ))
(define-fun func57  ((A (BitVec 64)) (B (BitVec 64)) ) (BitVec 64) (bvadd (bvshl B  #x0000000000000001 ) A ))
(define-fun func58  ((A (BitVec 64)) ) (BitVec 64) (bvnot (bvshl A  #x0000000000000001 )))
(synth-fun f ( (x (BitVec 64))) (BitVec 64)
(
(Start (BitVec 64) (
   #x0000000000000000
   #x0000000000000001
   x
   (func27 Start Start)
   (func28 Start Start)
   (func30 Start)
   (func32 Start Start Start)
   (func39 Start Start)
   (func40 Start Start)
   (func48 Start Start Start)
   (func54 Start Start Start)
   (func57 Start Start)
   (bvnot Start)
   (shl1 Start)
   (shr1 Start)
   (shr4 Start)
   (shr16 Start)
   (bvand Start Start)
   (bvor Start Start)
   (bvxor Start Start)
   (bvadd Start Start)
   (if0 Start Start Start)
))
))
(constraint (= (f #xa136ef4b4287acb1) #x0000000000000001))
(constraint (= (f #xa23177d3135c4341) #x0000000000000001))
(constraint (= (f #xe6ec1dc0eb6147b8) #x0000000000000000))
(constraint (= (f #xcef832a33d16e069) #x0000000000000001))
(constraint (= (f #x183fe289a6366f20) #x0000000000000000))
(constraint (= (f #x4b1f3740784914dc) #x0000000000000000))
(constraint (= (f #x9eac07d020568c05) #x0000000000000001))
(constraint (= (f #x6a1a9f6080ecc22c) #x0000000000000000))
(constraint (= (f #xe8756103cdb214e5) #x0000000000000001))
(constraint (= (f #x02f0bf1c4aea2525) #x0000000000000001))
(constraint (= (f #xf1edfd3fd2df87e8) #x0000000000000000))
(constraint (= (f #xf4bd7bf4ffb4f968) #x0000000000000000))
(constraint (= (f #xf6be9f5e9fb6fbe8) #x0000000000000000))
(constraint (= (f #xfa5edf2da5aded68) #x0000000000000000))
(constraint (= (f #xff3d6feb7d7dede0) #x0000000000000000))
(constraint (= (f #xfffffffffffe5e79) #x0000000000000001))
(constraint (= (f #xfffffffffffe7b08) #x0000000000000000))
(constraint (= (f #xfffffffffffe6751) #x0000000000000001))
(constraint (= (f #xfffffffffffe5c69) #x0000000000000001))
(constraint (= (f #xfffffffffffec4d1) #x0000000000000001))
(constraint (= (f #x80d0b4c2e95d1972) #x7f2f4b3d16a2e68d))
(constraint (= (f #x5f9d7083fa1b0ba3) #xa0628f7c05e4f45d))
(constraint (= (f #x70d169158520f3cb) #x8f2e96ea7adf0c35))
(constraint (= (f #xba2b7c41dcb1035f) #x45d483be234efca1))
(constraint (= (f #x9b7d5f1fe558c1e7) #x6482a0e01aa73e19))
(constraint (= (f #xff6b7df878f3e7ac) #x0000000000000000))
(constraint (= (f #xf8f4b7979e3fed2c) #x0000000000000000))
(constraint (= (f #xfb6fbe1f5af1ef6c) #x0000000000000000))
(constraint (= (f #xf0f879f8f9e5b7ec) #x0000000000000000))
(constraint (= (f #xf96dad3da5f3e1e4) #x0000000000000000))
(constraint (= (f #xfffffffffffe35dd) #x0000000000000001))
(constraint (= (f #xfffffffffffeb274) #x0000000000000000))
(constraint (= (f #xfffffffffffe93ec) #x0000000000000000))
(constraint (= (f #xfffffffffffe43f5) #x0000000000000001))
(constraint (= (f #xfffffffffffe659d) #x0000000000000001))
(constraint (= (f #xfffffffffffeb5e0) #x0000000000000000))
(constraint (= (f #xfffffffffffeb5e8) #x0000000000000000))
(constraint (= (f #xfffffffffffefd68) #x0000000000000000))
(constraint (= (f #xfffffffffffed7e8) #x0000000000000000))
(constraint (= (f #xfffffffffffebd68) #x0000000000000000))
(constraint (= (f #xf78fb5f1e7ed3f4e) #x08704a0e1812c0b1))
(constraint (= (f #xfa5fadafdbed3dea) #x05a052502412c215))
(constraint (= (f #xfbffbd3c7beb5bee) #x040042c38414a411))
(constraint (= (f #xfc3f8f7c79f0f1ee) #x03c07083860f0e11))
(constraint (= (f #xfcf1f3e5bdf5ff86) #x030e0c1a420a0079))
(constraint (= (f #xfffffffffffe9f32) #x00000000000160cc))
(constraint (= (f #xfffffffffffe280e) #x000000000001d7f0))
(constraint (= (f #xfffffffffffe904b) #x0000000000016fb5))
(constraint (= (f #xfffffffffffe68de) #x0000000000019720))
(constraint (= (f #xfffffffffffe918f) #x0000000000016e71))
(constraint (= (f #xfffffffffffef3e4) #x0000000000000000))
(constraint (= (f #xfffffffffffe1f2c) #x0000000000000000))
(constraint (= (f #xfffffffffffef1ec) #x0000000000000000))
(constraint (= (f #xfffffffffffebf2c) #x0000000000000000))
(constraint (= (f #xfffffffffffeb5e6) #x0000000000014a18))
(constraint (= (f #xfffffffffffe3dee) #x000000000001c210))
(constraint (= (f #xfffffffffffef1e2) #x0000000000010e1c))
(constraint (= (f #xfffffffffffe5fc2) #x000000000001a03c))
(constraint (= (f #xfffffffffffe5f2e) #x000000000001a0d0))
(constraint (= (f #xc08f82f91b06865c) #x0000000000000000))
(constraint (= (f #x119b3ff936aec2e1) #x0000000000000001))
(constraint (= (f #x62062b16a6a479c5) #x0000000000000001))
(constraint (= (f #x7a9e30132e352c15) #x0000000000000001))
(constraint (= (f #x9018beea17f9b379) #x0000000000000001))
(constraint (= (f #x97776ac5025979ac) #x0000000000000000))
(constraint (= (f #x861ce7a42a9b2b39) #x0000000000000001))
(constraint (= (f #x139b8a03fb6b17c7) #xec6475fc0494e839))
(constraint (= (f #xc3f756a22fa9cc68) #x0000000000000000))
(constraint (= (f #x6cdfb1558c0677b2) #x93204eaa73f9884d))
(constraint (= (f #xfffffffffffe4a56) #x000000000001b5a8))
(constraint (= (f #xfffffffffffea593) #x0000000000015a6d))
(constraint (= (f #xf97e96f5eb5a5bec) #x0000000000000000))
(constraint (= (f #xf7df87f2d7cb696a) #x0820780d28349695))
(constraint (= (f #xfffffffffffef409) #x0000000000000001))
(constraint (= (f #xfffffffffffe3de2) #x000000000001c21c))
(constraint (= (f #xfffffffffffebf2c) #x0000000000000000))
(constraint (= (f #xfffffffffffebe0d) #x0000000000000001))
(check-synth)
